p cnf 140 301
-1 -2 0
-1 -3 0
-2 -3 0
-4 -5 0
-4 -6 0
-5 -6 0
-7 -8 0
-7 -9 0
-8 -9 0
-10 -11 0
-10 -12 0
-11 -12 0
-13 -14 0
-13 -15 0
-14 -15 0
-16 -17 0
-16 -18 0
-17 -18 0
-19 -20 0
-19 -21 0
-20 -21 0
-22 -23 0
-22 -24 0
-23 -24 0
-25 -26 0
-25 -27 0
-26 -27 0
-28 -29 0
-28 -30 0
-29 -30 0
-31 -32 0
-31 -33 0
-32 -33 0
-34 -35 0
-34 -36 0
-35 -36 0
-37 -38 0
-37 -39 0
-38 -39 0
-40 -41 0
-40 -42 0
-41 -42 0
-43 -44 0
-43 -45 0
-44 -45 0
-46 -47 0
-46 -48 0
-47 -48 0
-49 -50 0
-49 -51 0
-50 -51 0
-52 -53 0
-52 -54 0
-53 -54 0
-55 -56 0
-55 -57 0
-56 -57 0
-58 -59 0
-58 -60 0
-59 -60 0
-61 -62 0
-61 -63 0
-62 -63 0
-64 -65 0
-64 -66 0
-65 -66 0
-67 -68 0
-67 -69 0
-68 -69 0
-70 -71 0
-70 -72 0
-71 -72 0
-73 -74 0
-73 -75 0
-74 -75 0
-76 -77 0
-76 -78 0
-77 -78 0
-79 -80 0
-79 -81 0
-80 -81 0
-82 -83 0
-82 -84 0
-83 -84 0
-85 -86 0
-85 -87 0
-86 -87 0
-88 -89 0
-88 -90 0
-89 -90 0
-91 -92 0
-91 -93 0
-92 -93 0
-94 -95 0
-94 -96 0
-95 -96 0
-97 -98 0
-97 -99 0
-98 -99 0
-100 -101 0
-100 -102 0
-101 -102 0
-103 -104 0
-103 -105 0
-104 -105 0
1 22 43 64 85 0
2 23 44 65 86 0
3 24 45 66 87 0
4 25 46 67 88 0
5 26 47 68 89 0
6 27 48 69 90 0
7 28 49 70 91 0
8 29 50 71 92 0
9 30 51 72 93 0
10 31 52 73 94 0
11 32 53 74 95 0
12 33 54 75 96 0
13 34 55 76 97 0
14 35 56 77 98 0
15 36 57 78 99 0
16 37 58 79 100 0
17 38 59 80 101 0
18 39 60 81 102 0
19 40 61 82 103 0
20 41 62 83 104 0
21 42 63 84 105 0
-106 -107 -108 -109 -110 -111 0
-106 -107 -108 -109 -110 -112 0
-106 -107 -108 -110 -111 -112 0
-106 -107 -108 -109 -111 -112 0
-106 -107 -109 -110 -111 -112 0
-106 -108 -109 -110 -111 -112 0
-107 -108 -109 -110 -111 -112 0
-113 -114 -115 -116 -117 -118 0
-113 -114 -115 -116 -117 -119 0
-113 -114 -115 -117 -118 -119 0
-113 -114 -115 -116 -118 -119 0
-113 -114 -116 -117 -118 -119 0
-113 -115 -116 -117 -118 -119 0
-114 -115 -116 -117 -118 -119 0
-120 -121 -122 -123 -124 -125 0
-120 -121 -122 -123 -124 -126 0
-120 -121 -122 -124 -125 -126 0
-120 -121 -122 -123 -125 -126 0
-120 -121 -123 -124 -125 -126 0
-120 -122 -123 -124 -125 -126 0
-121 -122 -123 -124 -125 -126 0
-127 -128 -129 -130 -131 -132 0
-127 -128 -129 -130 -131 -133 0
-127 -128 -129 -131 -132 -133 0
-127 -128 -129 -130 -132 -133 0
-127 -128 -130 -131 -132 -133 0
-127 -129 -130 -131 -132 -133 0
-128 -129 -130 -131 -132 -133 0
-134 -135 -136 -137 -138 -139 0
-134 -135 -136 -137 -138 -140 0
-134 -135 -136 -138 -139 -140 0
-134 -135 -136 -137 -139 -140 0
-134 -135 -137 -138 -139 -140 0
-134 -136 -137 -138 -139 -140 0
-135 -136 -137 -138 -139 -140 0
-1 106 0
-2 106 0
-3 106 0
-106 1 2 3 0
-4 107 0
-5 107 0
-6 107 0
-107 4 5 6 0
-7 108 0
-8 108 0
-9 108 0
-108 7 8 9 0
-10 109 0
-11 109 0
-12 109 0
-109 10 11 12 0
-13 110 0
-14 110 0
-15 110 0
-110 13 14 15 0
-16 111 0
-17 111 0
-18 111 0
-111 16 17 18 0
-19 112 0
-20 112 0
-21 112 0
-112 19 20 21 0
-22 113 0
-23 113 0
-24 113 0
-113 22 23 24 0
-25 114 0
-26 114 0
-27 114 0
-114 25 26 27 0
-28 115 0
-29 115 0
-30 115 0
-115 28 29 30 0
-31 116 0
-32 116 0
-33 116 0
-116 31 32 33 0
-34 117 0
-35 117 0
-36 117 0
-117 34 35 36 0
-37 118 0
-38 118 0
-39 118 0
-118 37 38 39 0
-40 119 0
-41 119 0
-42 119 0
-119 40 41 42 0
-43 120 0
-44 120 0
-45 120 0
-120 43 44 45 0
-46 121 0
-47 121 0
-48 121 0
-121 46 47 48 0
-49 122 0
-50 122 0
-51 122 0
-122 49 50 51 0
-52 123 0
-53 123 0
-54 123 0
-123 52 53 54 0
-55 124 0
-56 124 0
-57 124 0
-124 55 56 57 0
-58 125 0
-59 125 0
-60 125 0
-125 58 59 60 0
-61 126 0
-62 126 0
-63 126 0
-126 61 62 63 0
-64 127 0
-65 127 0
-66 127 0
-127 64 65 66 0
-67 128 0
-68 128 0
-69 128 0
-128 67 68 69 0
-70 129 0
-71 129 0
-72 129 0
-129 70 71 72 0
-73 130 0
-74 130 0
-75 130 0
-130 73 74 75 0
-76 131 0
-77 131 0
-78 131 0
-131 76 77 78 0
-79 132 0
-80 132 0
-81 132 0
-132 79 80 81 0
-82 133 0
-83 133 0
-84 133 0
-133 82 83 84 0
-85 134 0
-86 134 0
-87 134 0
-134 85 86 87 0
-88 135 0
-89 135 0
-90 135 0
-135 88 89 90 0
-91 136 0
-92 136 0
-93 136 0
-136 91 92 93 0
-94 137 0
-95 137 0
-96 137 0
-137 94 95 96 0
-97 138 0
-98 138 0
-99 138 0
-138 97 98 99 0
-100 139 0
-101 139 0
-102 139 0
-139 100 101 102 0
-103 140 0
-104 140 0
-105 140 0
-140 103 104 105 0
